CSW02
Position Depot: Center
Horizon for Depot: Small
Position of customers: Cluster
Distribution of the demand: Small
Width of time windows: Wide
Distribution of the service: Small

VEHICLE 
NUMBER 	 CAPACITY 
 6 	 	 64 
 
CUSTOMER
CUST NO. 	 XCOORD.  	 YCOORD. 	 DEMAND 	 READY TIME 	 DUE DATE 	 SERVICE TIME 
 0 	 	 500 	 	 500 	 	 0 	 	 0 	 	 2079 	 	 0 
  1 	 	 614 	 	 648 	 	 6 	 	 290 	 	 671 	 	 96 
  2 	 	 298 	 	 140 	 	 9 	 	 378 	 	 714 	 	 55 
  3 	 	 265 	 	 711 	 	 6 	 	 1601 	 	 2079 	 	 50 
  4 	 	 277 	 	 494 	 	 8 	 	 732 	 	 968 	 	 88 
  5 	 	 286 	 	 133 	 	 10 	 	 680 	 	 1074 	 	 59 
  6 	 	 406 	 	 673 	 	 6 	 	 1828 	 	 2079 	 	 50 
  7 	 	 318 	 	 1 	 	 10 	 	 1611 	 	 2079 	 	 65 
  8 	 	 602 	 	 649 	 	 5 	 	 1743 	 	 2022 	 	 62 
  9 	 	 601 	 	 648 	 	 9 	 	 361 	 	 561 	 	 54 
  10 	 	 267 	 	 748 	 	 10 	 	 73 	 	 374 	 	 64 
  11 	 	 285 	 	 176 	 	 6 	 	 330 	 	 770 	 	 93 
  12 	 	 312 	 	 587 	 	 10 	 	 1411 	 	 1669 	 	 93 
  13 	 	 682 	 	 686 	 	 10 	 	 147 	 	 607 	 	 58 
  14 	 	 457 	 	 184 	 	 6 	 	 -63 	 	 350 	 	 74 
  15 	 	 259 	 	 703 	 	 10 	 	 1596 	 	 2079 	 	 74 
  16 	 	 265 	 	 513 	 	 5 	 	 1621 	 	 2057 	 	 52 
  17 	 	 330 	 	 163 	 	 5 	 	 1600 	 	 2079 	 	 59 
  18 	 	 323 	 	 202 	 	 9 	 	 490 	 	 736 	 	 71 
  19 	 	 583 	 	 605 	 	 9 	 	 -78 	 	 147 	 	 92 
  20 	 	 413 	 	 485 	 	 10 	 	 1680 	 	 2079 	 	 52 
  21 	 	 284 	 	 708 	 	 10 	 	 386 	 	 750 	 	 57 
  22 	 	 634 	 	 669 	 	 9 	 	 1676 	 	 1885 	 	 78 
  23 	 	 225 	 	 208 	 	 7 	 	 472 	 	 802 	 	 69 
  24 	 	 338 	 	 540 	 	 7 	 	 1165 	 	 1508 	 	 77 
  25 	 	 300 	 	 493 	 	 7 	 	 1268 	 	 1533 	 	 97 
  26 	 	 378 	 	 554 	 	 5 	 	 1491 	 	 1772 	 	 62 
  27 	 	 308 	 	 769 	 	 7 	 	 372 	 	 662 	 	 83 
  28 	 	 506 	 	 598 	 	 7 	 	 831 	 	 1131 	 	 51 
  29 	 	 666 	 	 676 	 	 7 	 	 599 	 	 843 	 	 56 
  30 	 	 236 	 	 230 	 	 10 	 	 1658 	 	 2079 	 	 74 
  31 	 	 321 	 	 121 	 	 10 	 	 1454 	 	 1845 	 	 96 
  32 	 	 288 	 	 194 	 	 9 	 	 810 	 	 1142 	 	 56 
  33 	 	 259 	 	 708 	 	 7 	 	 1470 	 	 1884 	 	 79 
  34 	 	 224 	 	 124 	 	 9 	 	 1316 	 	 1739 	 	 70 
  35 	 	 663 	 	 633 	 	 9 	 	 1253 	 	 1645 	 	 90 
  36 	 	 604 	 	 763 	 	 8 	 	 515 	 	 768 	 	 80 
  37 	 	 167 	 	 804 	 	 9 	 	 1069 	 	 1481 	 	 57 
  38 	 	 210 	 	 689 	 	 7 	 	 389 	 	 816 	 	 74 
  39 	 	 281 	 	 500 	 	 10 	 	 1581 	 	 1852 	 	 78 
  40 	 	 655 	 	 719 	 	 7 	 	 147 	 	 510 	 	 64 
  41 	 	 607 	 	 721 	 	 8 	 	 951 	 	 1233 	 	 83 
  42 	 	 212 	 	 526 	 	 8 	 	 345 	 	 692 	 	 93 
  43 	 	 255 	 	 495 	 	 9 	 	 1107 	 	 1576 	 	 73 
  44 	 	 643 	 	 699 	 	 8 	 	 802 	 	 1174 	 	 72 
  45 	 	 349 	 	 508 	 	 5 	 	 1526 	 	 1852 	 	 96 
  46 	 	 257 	 	 476 	 	 6 	 	 268 	 	 596 	 	 50 
  47 	 	 534 	 	 652 	 	 9 	 	 1375 	 	 1690 	 	 77 
  48 	 	 242 	 	 679 	 	 7 	 	 1095 	 	 1588 	 	 67 
  49 	 	 905 	 	 529 	 	 6 	 	 689 	 	 988 	 	 93 
  50 	 	 304 	 	 547 	 	 9 	 	 592 	 	 898 	 	 52 
 